1 1 -2 0
1 -1 3 0
1 -1 4 0
1 1 5 0
1 2 -6 0
1 -2 -7 0
1 2 -8 0
1 2 1 0
1 -9 -10 0
1 -9 11 0
1 -9 7 0
1 -9 12 0
1 -13 8 0
1 -13 -14 0
1 -13 -9 0
1 13 -5 0
1 -8 -15 0
1 8 16 0
1 8 -17 0
1 8 13 0
1 8 2 0
1 8 -18 0
1 8 19 0
1 8 20 0
1 8 -21 0
1 -8 -5 0
1 -5 -22 0
1 5 -17 0
1 -5 -13 0
1 5 2 0
1 -5 -8 0
1 -5 -19 0
1 5 9 0
1 -7 15 0
1 -7 23 0
1 -7 -24 0
1 7 19 0
1 7 25 0
1 7 -9 0
1 7 -3 0
1 -3 26 0
1 -3 -13 0
1 3 2 0
1 3 7 0
1 3 27 0
1 3 25 0
1 -3 -9 0
1 -3 1 0
1 -3 -28 0
1 21 17 0
1 -21 8 0
1 -21 -14 0
1 -21 -25 0
1 -17 -10 0
1 -17 -11 0
1 -17 -23 0
1 -17 -14 0
1 17 -21 0
1 -17 -5 0
1 -20 -10 0
1 -20 -16 0
1 -20 29 0
1 -20 -12 0
1 -20 -14 0
1 20 30 0
1 -20 -27 0
1 20 31 0
1 20 -5 0
1 16 10 0
1 16 11 0
1 -16 -26 0
1 -16 -29 0
1 -16 -8 0
1 -16 12 0
1 16 14 0
1 -16 20 0
1 -16 -30 0
1 16 31 0
1 -16 -5 0
1 -14 -32 0
1 -14 -17 0
1 14 13 0
1 -14 -33 0
1 14 -34 0
1 14 -20 0
1 -14 35 0
1 -11 -36 0
1 11 -37 0
1 11 -16 0
1 -11 17 0
1 -11 -13 0
1 -11 -21 0
1 11 -9 0
1 12 -10 0
1 12 16 0
1 -12 17 0
1 12 -13 0
1 12 33 0
1 -12 -38 0
1 -12 -39 0
1 12 19 0
1 12 -20 0
1 12 -21 0
1 -12 9 0
1 -10 40 0
1 10 -15 0
1 -10 -16 0
1 -10 -17 0
1 -10 -13 0
1 -10 33 0
1 -10 12 0
1 -10 38 0
1 -10 19 0
1 -10 -20 0
1 10 -21 0
1 10 35 0
1 41 32 0
1 41 11 0
1 41 14 0
1 41 19 0
1 41 -30 0
1 -32 -15 0
1 -32 -41 0
1 32 -14 0
1 42 36 0
1 -42 -29 0
1 -42 -14 0
1 42 30 0
1 42 31 0
1 36 40 0
1 36 -11 0
1 36 -29 0
1 -36 42 0
1 -36 14 0
1 -36 -30 0
1 -31 -36 0
1 31 32 0
1 31 43 0
1 29 36 0
1 -29 32 0
1 29 44 0
1 29 -45 0
1 29 42 0
1 -29 41 0
1 -29 -20 0
1 29 46 0
1 30 -32 0
1 -30 -16 0
1 -30 -47 0
1 30 -42 0
1 -30 -41 0
1 30 -48 0
1 -30 -46 0
1 -30 -49 0
1 -30 -35 0
1 -47 -36 0
1 -47 16 0
1 47 -42 0
1 -47 -41 0
1 47 20 0
1 47 46 0
1 -47 -49 0
1 -47 35 0
1 4 50 0
1 4 -51 0
1 4 -52 0
1 6 -50 0
1 6 -51 0
1 6 53 0
1 6 52 0
1 -6 -4 0
1 -54 -50 0
1 54 51 0
1 -54 55 0
1 -54 56 0
1 54 -57 0
1 54 -52 0
1 54 58 0
1 -54 -9 0
1 -57 -55 0
1 57 56 0
1 -57 -52 0
1 -57 -58 0
1 57 54 0
1 51 26 0
1 51 -23 0
1 -51 -25 0
1 51 4 0
1 52 51 0
1 -52 59 0
1 -52 -27 0
1 -52 -25 0
1 -52 54 0
1 -52 -4 0
1 -50 60 0
1 50 -53 0
1 50 -4 0
1 -53 50 0
1 -53 57 0
1 53 -6 0
1 53 61 0
1 -53 -4 0
1 25 51 0
1 25 -23 0
1 -25 56 0
1 -25 52 0
1 -25 -62 0
1 25 58 0
1 -25 21 0
1 23 -51 0
1 23 17 0
1 23 56 0
1 23 52 0
1 -23 58 0
1 23 25 0
1 -23 3 0
1 27 51 0
1 -27 -26 0
1 27 55 0
1 -27 -63 0
1 27 -62 0
1 -27 -20 0
1 -27 58 0
1 -27 -64 0
1 -27 -65 0
1 -27 3 0
1 26 58 0
1 26 51 0
1 26 -16 0
1 -26 55 0
1 26 56 0
1 26 -66 0
1 26 -7 0
1 26 -64 0
1 -56 -58 0
1 -56 -40 0
1 56 -15 0
1 56 -26 0
1 -56 23 0
1 -56 -67 0
1 56 19 0
1 56 -27 0
1 58 68 0
1 -58 15 0
1 58 -26 0
1 -58 23 0
1 -58 27 0
1 -58 -69 0
1 -58 -54 0
1 -55 68 0
1 -55 -23 0
1 55 57 0
1 55 25 0
1 55 54 0
1 62 68 0
1 62 26 0
1 -62 -55 0
1 -62 -67 0
1 -62 27 0
1 62 70 0
1 -62 25 0
1 62 54 0
1 -19 56 0
1 19 -63 0
1 19 -12 0
1 -19 64 0
1 19 -65 0
1 -19 -3 0
1 -19 5 0
1 15 -10 0
1 15 56 0
1 -15 63 0
1 15 7 0
1 15 -12 0
1 15 -19 0
1 -15 64 0
1 -15 3 0
1 -15 5 0
1 -38 22 0
1 38 -40 0
1 -38 -63 0
1 -38 -66 0
1 38 -42 0
1 38 -58 0
1 38 -64 0
1 38 65 0
1 -40 -22 0
1 -40 -36 0
1 -40 -10 0
1 -40 -56 0
1 -40 63 0
1 -40 -24 0
1 -40 -18 0
1 40 12 0
1 -40 -38 0
1 40 -64 0
1 -40 28 0
1 -66 71 0
1 66 72 0
1 -66 -33 0
1 -66 -65 0
1 -66 73 0
1 66 -35 0
1 65 15 0
1 65 72 0
1 -65 -33 0
1 65 -74 0
1 -65 19 0
1 -65 27 0
1 -65 -49 0
1 63 -68 0
1 63 -15 0
1 -63 75 0
1 63 71 0
1 63 76 0
1 63 -67 0
1 -63 19 0
1 63 -64 0
1 -63 73 0
1 -63 -77 0
1 64 -68 0
1 -64 -40 0
1 64 -26 0
1 -64 -63 0
1 -64 71 0
1 -64 67 0
1 -64 27 0
1 -64 73 0
1 -64 -77 0
1 -33 -22 0
1 -33 10 0
1 33 -11 0
1 33 66 0
1 -33 -24 0
1 33 -12 0
1 -33 -18 0
1 -33 -14 0
1 35 68 0
1 -35 -10 0
1 35 22 0
1 -35 -11 0
1 35 66 0
1 -35 33 0
1 -35 18 0
1 35 -30 0
1 -35 28 0
1 -72 -76 0
1 72 -24 0
1 72 -39 0
1 72 -34 0
1 72 -30 0
1 72 49 0
1 72 28 0
1 -49 78 0
1 -49 -37 0
1 49 -66 0
1 -49 18 0
1 -49 -34 0
1 -49 -28 0
1 49 -65 0
1 18 22 0
1 -18 -79 0
1 18 80 0
1 -18 -45 0
1 18 -33 0
1 18 -8 0
1 18 81 0
1 18 -82 0
1 18 -46 0
1 -18 -35 0
1 -22 -45 0
1 -22 33 0
1 -22 18 0
1 -22 38 0
1 -22 -81 0
1 -22 -82 0
1 22 46 0
1 -24 40 0
1 24 71 0
1 -24 72 0
1 -24 -7 0
1 24 -83 0
1 24 28 0
1 -24 35 0
1 28 -40 0
1 28 -79 0
1 28 72 0
1 -28 -33 0
1 -28 38 0
1 28 -49 0
1 45 -22 0
1 45 47 0
1 45 -71 0
1 45 39 0
1 -45 34 0
1 -45 -30 0
1 45 -46 0
1 -46 -78 0
1 -46 -45 0
1 46 39 0
1 46 -34 0
1 46 -30 0
1 46 -73 0
1 80 22 0
1 80 -37 0
1 80 84 0
1 80 -85 0
1 80 39 0
1 -80 -34 0
1 -80 48 0
1 80 43 0
1 -82 -22 0
1 -82 -37 0
1 -82 84 0
1 82 44 0
1 82 -80 0
1 82 18 0
1 82 39 0
1 82 -48 0
1 34 -72 0
1 -34 14 0
1 34 49 0
1 -37 72 0
1 37 86 0
1 -37 -87 0
1 -37 82 0
1 37 -46 0
1 37 49 0
1 -39 78 0
1 -39 72 0
1 39 -81 0
1 39 82 0
1 -39 -46 0
1 -78 10 0
1 -78 -80 0
1 78 -72 0
1 -78 39 0
1 -78 88 0
1 -78 -81 0
1 78 -82 0
1 -78 46 0
1 -89 37 0
1 -89 84 0
1 -89 79 0
1 89 -48 0
1 -89 -34 0
1 -89 -87 0
1 87 -89 0
1 -87 -44 0
1 -87 34 0
1 -87 81 0
1 -87 -43 0
1 90 -91 0
1 90 34 0
1 90 -48 0
1 86 -37 0
1 86 -90 0
1 86 44 0
1 43 89 0
1 -43 -80 0
1 -43 87 0
1 -43 31 0
1 -43 -82 0
1 44 29 0
1 -44 -89 0
1 44 -80 0
1 -44 86 0
1 -44 -87 0
1 44 -82 0
1 48 90 0
1 -48 -89 0
1 -48 -30 0
1 84 -90 0
1 -84 89 0
1 -84 80 0
1 84 48 0
1 84 86 0
1 -84 87 0
1 67 60 0
1 67 -55 0
1 -67 63 0
1 -67 -61 0
1 -67 59 0
1 -67 -58 0
1 67 64 0
1 -68 -92 0
1 68 55 0
1 -68 -63 0
1 68 67 0
1 -68 59 0
1 68 64 0
1 -76 92 0
1 -76 -93 0
1 76 -94 0
1 76 -63 0
1 -76 -61 0
1 76 59 0
1 -76 -69 0
1 76 64 0
1 76 77 0
1 77 60 0
1 77 92 0
1 -77 -61 0
1 77 69 0
1 -92 -68 0
1 -92 51 0
1 92 71 0
1 92 -83 0
1 92 73 0
1 -92 -77 0
1 -59 92 0
1 59 -85 0
1 -59 71 0
1 -59 76 0
1 -59 52 0
1 -59 83 0
1 -59 -77 0
1 60 -68 0
1 60 -50 0
1 60 76 0
1 60 -67 0
1 -60 -61 0
1 60 -77 0
1 61 68 0
1 61 60 0
1 61 -76 0
1 -61 -53 0
1 61 -77 0
1 -71 -93 0
1 71 -45 0
1 71 -66 0
1 71 -70 0
1 -71 -69 0
1 71 -64 0
1 -71 -73 0
1 -73 -92 0
1 -73 94 0
1 -73 -63 0
1 -73 66 0
1 73 71 0
1 73 70 0
1 -73 -69 0
1 -73 -64 0
1 -73 -28 0
1 85 -94 0
1 85 -95 0
1 85 70 0
1 85 69 0
1 -85 83 0
1 85 74 0
1 -85 -28 0
1 -83 -93 0
1 83 -94 0
1 83 85 0
1 83 -75 0
1 83 -95 0
1 83 24 0
1 83 -70 0
1 83 82 0
1 -83 -96 0
1 -83 74 0
1 -94 56 0
1 94 -85 0
1 94 71 0
1 -94 76 0
1 -94 -83 0
1 94 -73 0
1 94 -77 0
1 -69 -91 0
1 69 -79 0
1 -69 -94 0
1 69 85 0
1 69 -76 0
1 -69 88 0
1 69 -83 0
1 -69 -73 0
1 -69 77 0
1 -93 71 0
1 93 70 0
1 93 -83 0
1 -93 73 0
1 -93 77 0
1 70 93 0
1 -70 -85 0
1 70 -71 0
1 70 -76 0
1 70 -62 0
1 -70 -77 0
1 79 69 0
1 79 89 0
1 79 94 0
1 -79 75 0
1 79 -95 0
1 79 -39 0
1 79 81 0
1 -79 74 0
1 -79 -28 0
1 81 94 0
1 -81 -75 0
1 -81 -24 0
1 81 -87 0
1 -81 -69 0
1 -81 74 0
1 91 -78 0
1 -91 -90 0
1 91 -94 0
1 91 -39 0
1 91 -69 0
1 -91 74 0
1 88 78 0
1 -88 -95 0
1 -88 -96 0
1 95 -79 0
1 95 -85 0
1 95 66 0
1 95 81 0
1 -74 -85 0
1 -74 -95 0
1 -74 -65 0
1 75 91 0
1 -75 96 0
1 -75 79 0
1 75 85 0
1 -75 -88 0
1 -75 81 0
1 -75 -83 0
1 -96 -85 0
1 -96 -75 0
1 -96 -81 0
1 96 64 0
